31 10 32 90 63 62 88 
18 82 8 83 5 59 92 87 2 75 22 41 15 43 100 37 97 95 94 13 58 
27 69 70 30 51 9 35 71 65 66 20 1 
53 40 21 73 4 54 80 68 77 3 50 
52 7 19 11 64 49 36 47 48 46 45 17 84 60 89 
57 42 14 44 38 86 16 61 85 91 98 93 99 96 6 
28 12 76 79 33 81 78 34 29 24 55 25 39 23 67 56 74 72 26 
